13485
101001011001011001001000110010
20 11 20 2 20 5 2 24 2 17 5 8 8 8 7 8 14 17 25 11 2 7 11 0 28 8 17 24 5 5 11 25 13 5 20 20 24 24 25 2 17 8 24 8 24 14 20 20 17 28 25 14 14 5 13 20 2 11 0 14 17 5 20 11 11 11 25 0 11 25 20 13 5 17 24 8 25 20 2 24 13 17 13 17 2 17 2 7 20 25 14 24 7 11 7 5 17 2 25 8 13 7 14 0 2 11 0 11 28 28 14 17 2 11 25 7 24 24 5 24 5 14 25 13 8 2 5 25 17 11 0 11 24 11 8 14 17 7 20 17 17 28 20 14 8 25 25 5 2 5 